DIMENSION: 14
EDGE_WEIGHT_TYPE: EXPLICIT
EDGE_WEIGHT_FORMAT: FULL_MATRIX
EDGE_WEIGHT_SECTION:
32767 32767 32767 32767 32767 32767 32767 43 35 43 32767 32767 74 57 
32767 32767 99 32767 32767 22 71 95 32767 32767 32767 32767 32767 10 
32767 99 32767 44 31 98 32767 32767 32767 15 32767 32767 32767 32767 
32767 32767 44 32767 32767 32767 32767 32767 32767 93 63 32767 2 32767 
32767 32767 31 32767 32767 32767 32767 82 69 39 32767 32 8 32767 
32767 22 98 32767 32767 32767 32767 32767 32767 32767 32767 32767 32767 32767 
32767 71 32767 32767 32767 32767 32767 32767 32767 32767 32767 32767 32767 32767 
43 95 32767 32767 82 32767 32767 32767 32767 32767 32767 32767 88 32767 
35 32767 32767 32767 69 32767 32767 32767 32767 32767 15 32767 32767 32767 
43 32767 15 93 39 32767 32767 32767 32767 32767 32767 32767 32767 32767 
32767 32767 32767 63 32767 32767 32767 32767 15 32767 32767 32767 32767 63 
32767 32767 32767 32767 32 32767 32767 32767 32767 32767 32767 32767 32767 32767 
74 32767 32767 2 8 32767 32767 88 32767 32767 32767 32767 32767 32767 
57 10 32767 32767 32767 32767 32767 32767 32767 32767 63 32767 32767 32767 
EOF